NAME          
ROWS
 N  OBJ
 L  c1
 L  c2
 L  c3
 L  c4
 L  c5
COLUMNS
    MARKER    'MARKER'                 'INTORG'
    x[1]      c1        217
    x[1]      c2        771
    x[1]      c3        650
    x[1]      c4        185
    x[1]      c5        599
    x[1]      OBJ       -983
    x[2]      c1        922
    x[2]      c2        396
    x[2]      c3        652
    x[2]      c4        226
    x[2]      c5        497
    x[2]      OBJ       -470
    x[3]      c1        194
    x[3]      c2        842
    x[3]      c3        249
    x[3]      c4        422
    x[3]      c5        410
    x[3]      OBJ       -690
    x[4]      c1        765
    x[4]      c2        104
    x[4]      c3        126
    x[4]      c4        600
    x[4]      c5        510
    x[4]      OBJ       -279
    x[5]      c1        799
    x[5]      c2        400
    x[5]      c3        816
    x[5]      c4        258
    x[5]      c5        749
    x[5]      OBJ       -458
    x[6]      c1        656
    x[6]      c2        589
    x[6]      c3        494
    x[6]      c4        402
    x[6]      c5        83
    x[6]      OBJ       -280
    x[7]      c1        308
    x[7]      c2        825
    x[7]      c3        866
    x[7]      c4        735
    x[7]      c5        952
    x[7]      OBJ       -618
    x[8]      c1        611
    x[8]      c2        605
    x[8]      c3        219
    x[8]      c4        781
    x[8]      c5        505
    x[8]      OBJ       -615
    x[9]      c1        794
    x[9]      c2        295
    x[9]      c3        11
    x[9]      c4        54
    x[9]      c5        582
    x[9]      OBJ       -343
    x[10]     c1        692
    x[10]     c2        91
    x[10]     c3        475
    x[10]     c4        667
    x[10]     c5        939
    x[10]     OBJ       -594
RHS
    rhs       c1        2979
    rhs       c2        2459
    rhs       c3        2279
    rhs       c4        2165
    rhs       c5        2913
RANGES
BOUNDS
 BV bounds    x[1]
 BV bounds    x[2]
 BV bounds    x[3]
 BV bounds    x[4]
 BV bounds    x[5]
 BV bounds    x[6]
 BV bounds    x[7]
 BV bounds    x[8]
 BV bounds    x[9]
 BV bounds    x[10]
ENDATA
